28 76 30 90 49 46 48 17 60 89 
72 73 21 40 26 
12 29 79 3 50 
2 87 57 43 37 97 13 58 
27 69 31 52 82 8 18 84 96 93 91 100 
33 65 63 62 47 36 19 11 64 71 9 51 81 78 34 24 55 25 
59 98 14 44 38 86 85 99 6 94 53 
95 92 42 15 39 67 23 75 22 41 56 74 4 54 68 80 77 
83 45 5 61 16 7 88 10 20 66 35 32 70 1 
